!   File created by the GAMESS Input Deck Generator Plugin for Avogadro
 $BASIS GBASIS=N31 NGAUSS=6 NDFUNC=1 NPFUNC=1 $END
 $CONTRL SCFTYP=RHF RUNTYP=OPTIMIZE DFTTYP=B3LYP $END
 $STATPT OPTTOL=0.0001 NSTEP=20 $END

 $DATA 
Title
C1
C     6.0    -2.35923     1.62453    -0.00000
C     6.0    -1.85165     0.26075    -0.00000
C     6.0    -3.12551    -0.19494    -0.00000
C     6.0    -3.62104     1.13650    -0.00000
H     1.0    -4.63118     1.50137    -0.00000
H     1.0    -3.65130    -1.13146    -0.00000
H     1.0    -2.12170     2.70859    -0.00000
H     1.0    -0.96318    -0.40423    -0.00000
 $END
