!   File created by the GAMESS Input Deck Generator Plugin for Avogadro
 $BASIS GBASIS=N31 NGAUSS=6 NDFUNC=1 NPFUNC=1 $END
 $CONTRL SCFTYP=RHF RUNTYP=OPTIMIZE DFTTYP=B3LYP $END
 $STATPT OPTTOL=0.0001 NSTEP=20 $END

 $DATA 
Title
C1
C     6.0    -4.41607     1.10006     0.00000
C     6.0    -2.87960     1.44685     0.00000
C     6.0    -1.73947     0.38575     0.00000
C     6.0    -2.12760    -1.10501     0.00000
C     6.0    -3.64496    -1.36014     0.00000
C     6.0    -4.83326    -0.38853     0.00000
H     1.0    -2.55467     2.50135     0.00000
H     1.0    -5.13542     1.93269     0.00000
H     1.0    -1.43799    -1.96542     0.00000
H     1.0    -0.71192     0.77391     0.00000
H     1.0    -5.86149    -0.79273     0.00000
H     1.0    -4.01057    -2.54028     0.00000
 $END
